benchmarks_CP/INST_36x36/20/inst36x36_20_95.dzn
S=6;
start=[|
-1,	-1,	-1,	-1,	-1,	-1,	31,	-1,	23,	-1,	-1,	-1,	26,	-1,	-1,	-1,	-1,	-1,	-1,	-1,	-1,	30,	16,	-1,	-1,	8,	-1,	4,	-1,	-1,	-1,	-1,	32,	-1,	28,	-1|
-1,	-1,	25,	-1,	23,	-1,	-1,	-1,	-1,	-1,	-1,	-1,	-1,	-1,	-1,	-1,	-1,	-1,	-1,	-1,	-1,	14,	-1,	-1,	-1,	-1,	-1,	-1,	33,	-1,	20,	-1,	-1,	-1,	-1,	-1|
-1,	-1,	12,	-1,	-1,	-1,	8,	-1,	-1,	-1,	-1,	9,	-1,	-1,	-1,	-1,	-1,	6,	-1,	-1,	-1,	-1,	-1,	27,	-1,	18,	-1,	-1,	-1,	-1,	11,	-1,	2,	-1,	-1,	-1|
-1,	13,	-1,	-1,	-1,	-1,	19,	-1,	-1,	-1,	25,	-1,	-1,	36,	-1,	-1,	-1,	-1,	-1,	-1,	-1,	-1,	-1,	24,	-1,	27,	-1,	-1,	-1,	-1,	31,	33,	-1,	-1,	-1,	-1|
-1,	-1,	-1,	-1,	-1,	-1,	-1,	-1,	-1,	14,	-1,	-1,	-1,	-1,	34,	-1,	-1,	-1,	-1,	28,	-1,	-1,	-1,	-1,	-1,	-1,	-1,	-1,	1,	-1,	-1,	23,	-1,	-1,	-1,	-1|
27,	-1,	-1,	-1,	-1,	-1,	-1,	1,	-1,	-1,	-1,	-1,	-1,	20,	-1,	-1,	35,	24,	-1,	-1,	-1,	23,	-1,	4,	-1,	29,	-1,	-1,	21,	-1,	-1,	-1,	-1,	34,	-1,	36|
30,	-1,	-1,	-1,	-1,	-1,	-1,	-1,	-1,	-1,	-1,	5,	15,	-1,	-1,	-1,	-1,	-1,	-1,	-1,	-1,	-1,	-1,	-1,	-1,	22,	-1,	-1,	-1,	35,	-1,	-1,	-1,	-1,	-1,	10|
-1,	-1,	-1,	-1,	-1,	-1,	-1,	-1,	8,	-1,	-1,	-1,	-1,	-1,	-1,	-1,	-1,	31,	-1,	-1,	-1,	-1,	-1,	-1,	-1,	24,	-1,	-1,	-1,	-1,	26,	-1,	-1,	-1,	-1,	-1|
3,	-1,	-1,	-1,	-1,	10,	13,	-1,	32,	-1,	29,	14,	30,	-1,	-1,	-1,	-1,	-1,	-1,	-1,	-1,	33,	-1,	23,	-1,	-1,	-1,	-1,	-1,	-1,	-1,	-1,	-1,	-1,	-1,	-1|
36,	-1,	-1,	13,	-1,	-1,	-1,	-1,	-1,	-1,	-1,	-1,	-1,	-1,	-1,	-1,	-1,	34,	-1,	-1,	-1,	-1,	-1,	-1,	-1,	-1,	29,	5,	-1,	-1,	2,	-1,	17,	-1,	-1,	-1|
-1,	-1,	-1,	-1,	-1,	-1,	-1,	-1,	-1,	-1,	24,	-1,	35,	4,	-1,	-1,	-1,	-1,	13,	-1,	-1,	-1,	-1,	1,	-1,	26,	-1,	-1,	-1,	-1,	34,	-1,	33,	-1,	36,	11|
-1,	-1,	-1,	-1,	-1,	-1,	-1,	-1,	-1,	-1,	-1,	25,	-1,	-1,	-1,	-1,	-1,	14,	-1,	4,	-1,	-1,	-1,	-1,	-1,	-1,	-1,	30,	-1,	15,	-1,	-1,	-1,	-1,	13,	-1|
-1,	12,	3,	-1,	-1,	13,	-1,	-1,	-1,	-1,	-1,	34,	-1,	-1,	-1,	-1,	-1,	-1,	-1,	-1,	33,	-1,	-1,	-1,	-1,	9,	-1,	8,	-1,	-1,	14,	-1,	-1,	28,	-1,	-1|
-1,	-1,	-1,	-1,	-1,	-1,	-1,	-1,	28,	-1,	-1,	-1,	-1,	1,	-1,	-1,	-1,	-1,	36,	-1,	-1,	-1,	-1,	-1,	-1,	-1,	32,	-1,	-1,	-1,	-1,	-1,	-1,	-1,	-1,	-1|
-1,	5,	-1,	30,	-1,	21,	-1,	-1,	-1,	-1,	-1,	-1,	2,	3,	12,	-1,	-1,	-1,	-1,	-1,	-1,	4,	-1,	-1,	-1,	33,	-1,	-1,	-1,	6,	-1,	29,	-1,	-1,	-1,	-1|
-1,	-1,	-1,	-1,	-1,	-1,	30,	-1,	-1,	-1,	-1,	-1,	-1,	-1,	-1,	-1,	23,	-1,	9,	-1,	-1,	-1,	-1,	-1,	-1,	-1,	-1,	-1,	2,	-1,	-1,	-1,	-1,	-1,	-1,	-1|
-1,	-1,	-1,	-1,	-1,	-1,	-1,	-1,	-1,	9,	-1,	-1,	-1,	34,	-1,	-1,	-1,	-1,	29,	-1,	-1,	-1,	-1,	-1,	-1,	-1,	-1,	-1,	-1,	-1,	-1,	-1,	23,	26,	-1,	-1|
-1,	-1,	-1,	-1,	-1,	-1,	-1,	-1,	21,	10,	-1,	1,	-1,	-1,	-1,	-1,	-1,	-1,	30,	-1,	-1,	-1,	-1,	-1,	-1,	-1,	-1,	-1,	-1,	-1,	-1,	-1,	-1,	-1,	-1,	-1|
-1,	29,	-1,	25,	-1,	-1,	33,	-1,	-1,	-1,	-1,	-1,	-1,	-1,	-1,	-1,	34,	-1,	-1,	-1,	-1,	-1,	24,	-1,	-1,	-1,	5,	-1,	-1,	-1,	27,	18,	21,	11,	26,	-1|
-1,	-1,	24,	-1,	-1,	20,	27,	22,	-1,	-1,	-1,	-1,	14,	15,	-1,	2,	-1,	23,	-1,	-1,	-1,	-1,	5,	-1,	-1,	-1,	-1,	19,	-1,	-1,	-1,	-1,	-1,	-1,	-1,	-1|
-1,	-1,	-1,	15,	-1,	-1,	-1,	-1,	2,	-1,	-1,	8,	-1,	13,	-1,	26,	-1,	-1,	-1,	-1,	-1,	-1,	-1,	-1,	-1,	-1,	-1,	-1,	-1,	-1,	1,	25,	-1,	-1,	-1,	24|
-1,	-1,	-1,	19,	-1,	-1,	-1,	34,	-1,	36,	-1,	-1,	-1,	-1,	29,	31,	16,	-1,	-1,	-1,	-1,	15,	-1,	-1,	-1,	-1,	-1,	26,	-1,	-1,	-1,	-1,	28,	-1,	33,	-1|
-1,	-1,	-1,	-1,	-1,	-1,	-1,	-1,	-1,	-1,	-1,	-1,	6,	-1,	1,	-1,	-1,	7,	-1,	-1,	-1,	2,	-1,	35,	-1,	-1,	8,	-1,	-1,	-1,	36,	-1,	16,	-1,	19,	-1|
-1,	-1,	-1,	-1,	4,	-1,	-1,	-1,	-1,	3,	-1,	-1,	-1,	-1,	-1,	-1,	-1,	27,	-1,	-1,	-1,	-1,	1,	-1,	-1,	-1,	-1,	-1,	-1,	-1,	-1,	34,	-1,	-1,	-1,	23|
-1,	25,	34,	-1,	-1,	-1,	1,	-1,	-1,	-1,	-1,	-1,	-1,	-1,	-1,	-1,	-1,	-1,	-1,	-1,	-1,	-1,	27,	-1,	-1,	36,	-1,	-1,	-1,	-1,	-1,	-1,	31,	-1,	-1,	-1|
-1,	-1,	-1,	-1,	30,	-1,	-1,	-1,	-1,	-1,	-1,	-1,	-1,	-1,	-1,	-1,	-1,	-1,	-1,	-1,	-1,	-1,	-1,	-1,	-1,	-1,	15,	-1,	-1,	-1,	-1,	-1,	-1,	19,	-1,	6|
-1,	15,	-1,	2,	-1,	31,	6,	-1,	16,	-1,	-1,	-1,	33,	-1,	-1,	21,	-1,	26,	-1,	-1,	11,	-1,	-1,	-1,	-1,	35,	-1,	-1,	3,	-1,	-1,	-1,	-1,	-1,	-1,	-1|
-1,	-1,	-1,	-1,	-1,	-1,	-1,	-1,	9,	-1,	-1,	-1,	-1,	-1,	-1,	-1,	-1,	-1,	-1,	32,	-1,	-1,	21,	-1,	-1,	-1,	-1,	-1,	-1,	19,	-1,	-1,	-1,	-1,	-1,	22|
-1,	-1,	-1,	-1,	5,	-1,	23,	35,	-1,	-1,	-1,	-1,	25,	-1,	-1,	-1,	-1,	-1,	16,	34,	-1,	-1,	-1,	-1,	-1,	-1,	-1,	-1,	-1,	-1,	-1,	-1,	11,	-1,	-1,	18|
-1,	-1,	-1,	-1,	-1,	18,	-1,	-1,	-1,	-1,	-1,	31,	-1,	-1,	-1,	24,	-1,	-1,	-1,	-1,	-1,	-1,	8,	-1,	-1,	-1,	-1,	-1,	25,	-1,	13,	16,	35,	1,	-1,	33|
15,	-1,	-1,	-1,	-1,	-1,	-1,	-1,	-1,	-1,	-1,	21,	-1,	-1,	28,	-1,	-1,	29,	-1,	-1,	14,	-1,	-1,	6,	-1,	-1,	7,	-1,	23,	-1,	-1,	-1,	-1,	-1,	-1,	-1|
-1,	-1,	-1,	6,	-1,	-1,	-1,	-1,	-1,	-1,	-1,	-1,	-1,	-1,	-1,	-1,	-1,	-1,	-1,	-1,	-1,	34,	-1,	12,	-1,	-1,	-1,	-1,	-1,	-1,	-1,	-1,	-1,	-1,	16,	-1|
-1,	-1,	-1,	-1,	-1,	-1,	34,	-1,	-1,	-1,	28,	-1,	1,	-1,	-1,	-1,	-1,	-1,	-1,	-1,	-1,	-1,	23,	-1,	-1,	19,	10,	-1,	18,	-1,	-1,	-1,	-1,	32,	35,	-1|
-1,	-1,	-1,	21,	-1,	14,	-1,	-1,	-1,	-1,	-1,	-1,	-1,	-1,	-1,	-1,	-1,	-1,	-1,	31,	26,	13,	25,	-1,	11,	-1,	30,	-1,	15,	-1,	-1,	-1,	-1,	-1,	-1,	-1|
-1,	-1,	-1,	-1,	-1,	-1,	36,	-1,	-1,	-1,	-1,	-1,	31,	-1,	-1,	-1,	-1,	-1,	-1,	-1,	-1,	19,	-1,	-1,	-1,	-1,	-1,	-1,	-1,	-1,	-1,	-1,	-1,	-1,	-1,	-1|
-1,	-1,	-1,	-1,	-1,	-1,	-1,	-1,	-1,	-1,	-1,	-1,	12,	-1,	-1,	-1,	-1,	-1,	-1,	33,	-1,	-1,	30,	-1,	-1,	-1,	-1,	-1,	-1,	34,	-1,	-1,	-1,	-1,	-1,	-1|];
